proyfinal/src/viki/013/andrea/andrea-localstore/experimentInOfficeAgust.take6/worker_10/51ed76f3-030f-47f7-9f68-864192a5649c.als.cnf.out
Reading from standard input... Use '--help' for help.
============================[ Problem Statistics ]=============================
|                                                                             |
|  Number of variables:         87638                                         |
|  Number of clauses:          161767                                         |
|  Parse time:                   0.03 s                                       |
|                                                                             |
============================[ Search Statistics ]==============================
| Conflicts |          ORIGINAL         |          LEARNT          | Progress |
|           |    Vars  Clauses Literals |    Limit  Clauses Lit/Cl |          |
===============================================================================
|       100 |   63375   109063   271766 |    39989      100      8 | 27.685 % |
|       250 |   63375   109063   271766 |    43988      250     21 | 27.685 % |
|       475 |   63375   109063   271766 |    48387      475     48 | 27.685 % |
|       812 |   63375   109063   271766 |    53226      812     57 | 27.685 % |
|      1318 |   63375   109063   271766 |    58549     1318     53 | 27.686 % |
|      2077 |   63375   109063   271766 |    64403     2077     56 | 27.685 % |
|      3216 |   63374   109019   271676 |    70844     3214     72 | 27.687 % |
|      4924 |   63374   109019   271676 |    77928     4922     74 | 27.687 % |
|      7486 |   63374   109019   271676 |    85721     7484     72 | 27.687 % |
|     11330 |   63358   108953   271523 |    94293    11325     84 | 27.705 % |
|     17096 |   63340   108887   271351 |   103723    17083     85 | 27.725 % |
===============================================================================
restarts              : 63
conflicts             : 18399          (7677 /sec)
decisions             : 64160          (0.00 % random) (26770 /sec)
propagations          : 24792174       (10344412 /sec)
conflict literals     : 1556065        (48.72 % deleted)
Memory used           : 42.95 MB
CPU time              : 2.39667 s

INDETERMINATE
